&CONTROL
   tstress          = .true.
   tprnfor          = .true.
/
&SYSTEM
   ntyp             = 2
   nat              = 2
   ibrav            = 0
/
&ELECTRONS
/
&IONS
/
&CELL
/

ATOMIC_SPECIES
Fe 55.845 Fe.UPF
C 12.011 C.UPF

K_POINTS automatic
3 3 3  0 0 0

CELL_PARAMETERS angstrom
4.25489000000000 0.00000000000000 0.00000000000000
2.12744500000000 3.68484283030837 0.00000000000000
0.00000000000000 0.00000000000000 12.00000000000000

ATOMIC_POSITIONS angstrom
Fe 3.1916325000 1.8423764152 4.9601900000  0 0 0
C 3.1907025000 1.8424664152 7.3398100000 

